p cnf 150 153
3 4 6 0
4 5 7 0
1 5 8 0
1 2 9 0
2 3 10 0
2 5 6 0
1 3 7 0
2 4 8 0
3 5 9 0
1 4 10 0
8 9 11 0
9 10 12 0
6 10 13 0
6 7 14 0
7 8 15 0
7 10 11 0
6 8 12 0
7 9 13 0
8 10 14 0
6 9 15 0
1 13 14 0
2 14 15 0
3 11 15 0
4 11 12 0
5 12 13 0
1 12 15 0
2 11 13 0
3 12 14 0
4 13 15 0
5 11 14 0
1 6 11 0
2 7 12 0
3 8 13 0
4 9 14 0
5 10 15 0
-16 -1 0
-25 -2 0
-25 16 0
-26 -2 16 0
-34 -3 0
-34 25 0
-35 -3 25 0
-35 26 0
-36 -3 26 0
-43 -4 0
-43 34 0
-44 -4 34 0
-44 35 0
-45 -4 35 0
-45 36 0
-46 -4 36 0
-52 -5 0
-52 43 0
-53 -5 43 0
-53 44 0
-54 -5 44 0
-54 45 0
-55 -5 45 0
-55 46 0
-56 -5 46 0
-61 -6 0
-61 52 0
-62 -6 52 0
-62 53 0
-63 -6 53 0
-63 54 0
-64 -6 54 0
-64 55 0
-65 -6 55 0
-65 56 0
-66 -6 56 0
-70 -7 0
-70 61 0
-71 -7 61 0
-71 62 0
-72 -7 62 0
-72 63 0
-73 -7 63 0
-73 64 0
-74 -7 64 0
-74 65 0
-75 -7 65 0
-75 66 0
-76 -7 66 0
-80 -8 70 0
-80 71 0
-81 -8 71 0
-81 72 0
-82 -8 72 0
-82 73 0
-83 -8 73 0
-83 74 0
-84 -8 74 0
-84 75 0
-85 -8 75 0
-85 76 0
-86 -8 76 0
-90 -9 80 0
-90 81 0
-91 -9 81 0
-91 82 0
-92 -9 82 0
-92 83 0
-93 -9 83 0
-93 84 0
-94 -9 84 0
-94 85 0
-95 -9 85 0
-95 86 0
-96 -9 86 0
-100 -10 90 0
-100 91 0
-101 -10 91 0
-101 92 0
-102 -10 92 0
-102 93 0
-103 -10 93 0
-103 94 0
-104 -10 94 0
-104 95 0
-105 -10 95 0
-105 96 0
-110 -11 100 0
-110 101 0
-111 -11 101 0
-111 102 0
-112 -11 102 0
-112 103 0
-113 -11 103 0
-113 104 0
-114 -11 104 0
-114 105 0
-120 -12 110 0
-120 111 0
-121 -12 111 0
-121 112 0
-122 -12 112 0
-122 113 0
-123 -12 113 0
-123 114 0
-130 -13 120 0
-130 121 0
-131 -13 121 0
-131 122 0
-132 -13 122 0
-132 123 0
-140 -14 130 0
-140 131 0
-141 -14 131 0
-141 132 0
-150 -15 140 0
-150 141 0
150 0
